clingo version 5.7.1
Reading from warehouse.lp ...
Solving...
Answer: 1
occurs(object(robot,1),move(0,-1),0) occurs(object(robot,1),move(-1,0),1) occurs(object(robot,2),move(0,1),1) occurs(object(robot,1),move(-1,0),2) occurs(object(robot,1),move(1,0),4) occurs(object(robot,1),move(0,-1),12) occurs(object(robot,2),move(-1,0),14) occurs(object(robot,1),pickup,3) occurs(object(robot,2),pickup,13) occurs(object(robot,2),putdown,16) occurs(object(robot,2),deliver(1,1,1),15) occurs(object(robot,1),deliver(3,2,2),47) occurs(object(robot,1),deliver(2,2,1),48) timeTaken(11) numActions(13)
Optimization: 175
Answer: 2
occurs(object(robot,1),move(-1,0),0) occurs(object(robot,1),move(0,-1),1) occurs(object(robot,2),move(0,1),1) occurs(object(robot,1),move(-1,0),2) occurs(object(robot,1),move(0,-1),4) occurs(object(robot,1),move(1,0),8) occurs(object(robot,2),move(-1,0),14) occurs(object(robot,1),pickup,3) occurs(object(robot,2),pickup,13) occurs(object(robot,2),putdown,16) occurs(object(robot,2),deliver(1,1,1),15) occurs(object(robot,1),deliver(3,2,2),47) occurs(object(robot,1),deliver(2,2,1),48) timeTaken(11) numActions(13)
Optimization: 171
Answer: 3
occurs(object(robot,1),move(0,-1),0) occurs(object(robot,1),move(-1,0),1) occurs(object(robot,2),move(0,1),1) occurs(object(robot,1),move(-1,0),2) occurs(object(robot,1),move(1,0),4) occurs(object(robot,1),move(0,-1),7) occurs(object(robot,2),move(-1,0),14) occurs(object(robot,1),pickup,3) occurs(object(robot,2),pickup,13) occurs(object(robot,2),putdown,16) occurs(object(robot,2),deliver(1,1,1),15) occurs(object(robot,1),deliver(3,2,2),47) occurs(object(robot,1),deliver(2,2,1),48) timeTaken(11) numActions(13)
Optimization: 170
Answer: 4
occurs(object(robot,1),move(0,-1),0) occurs(object(robot,1),move(-1,0),1) occurs(object(robot,2),move(0,1),1) occurs(object(robot,1),move(-1,0),2) occurs(object(robot,1),move(1,0),4) occurs(object(robot,1),move(0,-1),12) occurs(object(robot,2),move(-1,0),12) occurs(object(robot,1),pickup,3) occurs(object(robot,2),pickup,11) occurs(object(robot,2),putdown,16) occurs(object(robot,2),deliver(1,1,1),15) occurs(object(robot,1),deliver(3,2,2),47) occurs(object(robot,1),deliver(2,2,1),48) timeTaken(10) numActions(13)
Optimization: 159
Answer: 5
occurs(object(robot,1),move(0,-1),0) occurs(object(robot,1),move(-1,0),1) occurs(object(robot,2),move(0,1),1) occurs(object(robot,1),move(-1,0),2) occurs(object(robot,1),move(1,0),11) occurs(object(robot,1),move(0,-1),12) occurs(object(robot,2),move(-1,0),12) occurs(object(robot,1),pickup,3) occurs(object(robot,2),pickup,11) occurs(object(robot,2),putdown,16) occurs(object(robot,2),deliver(1,1,1),15) occurs(object(robot,1),deliver(3,2,2),47) occurs(object(robot,1),deliver(2,2,1),48) timeTaken(9) numActions(13)
Optimization: 155
Answer: 6
occurs(object(robot,1),move(0,-1),0) occurs(object(robot,1),move(-1,0),1) occurs(object(robot,2),move(0,1),1) occurs(object(robot,1),move(-1,0),2) occurs(object(robot,1),move(1,0),10) occurs(object(robot,1),move(0,-1),12) occurs(object(robot,2),move(-1,0),12) occurs(object(robot,1),pickup,3) occurs(object(robot,2),pickup,10) occurs(object(robot,2),putdown,16) occurs(object(robot,2),deliver(1,1,1),15) occurs(object(robot,1),deliver(3,2,2),47) occurs(object(robot,1),deliver(2,2,1),48) timeTaken(9) numActions(13)
Optimization: 154
Answer: 7
occurs(object(robot,1),move(0,-1),0) occurs(object(robot,1),move(-1,0),1) occurs(object(robot,2),move(0,1),1) occurs(object(robot,1),move(-1,0),2) occurs(object(robot,1),move(1,0),9) occurs(object(robot,1),move(0,-1),12) occurs(object(robot,2),move(-1,0),12) occurs(object(robot,1),pickup,3) occurs(object(robot,2),pickup,9) occurs(object(robot,2),putdown,16) occurs(object(robot,2),deliver(1,1,1),15) occurs(object(robot,1),deliver(3,2,2),47) occurs(object(robot,1),deliver(2,2,1),48) timeTaken(9) numActions(13)
Optimization: 153
Answer: 8
occurs(object(robot,1),move(0,-1),0) occurs(object(robot,1),move(-1,0),1) occurs(object(robot,2),move(0,1),1) occurs(object(robot,1),move(-1,0),2) occurs(object(robot,1),move(0,-1),12) occurs(object(robot,2),move(-1,0),12) occurs(object(robot,1),move(1,0),15) occurs(object(robot,1),pickup,3) occurs(object(robot,2),pickup,8) occurs(object(robot,2),putdown,16) occurs(object(robot,2),deliver(1,1,1),15) occurs(object(robot,1),deliver(3,2,2),47) occurs(object(robot,1),deliver(2,2,1),48) timeTaken(9) numActions(13)
Optimization: 152
Answer: 9
occurs(object(robot,1),move(0,-1),0) occurs(object(robot,1),move(-1,0),1) occurs(object(robot,2),move(0,1),1) occurs(object(robot,1),move(-1,0),2) occurs(object(robot,1),move(1,0),7) occurs(object(robot,1),move(0,-1),12) occurs(object(robot,2),move(-1,0),12) occurs(object(robot,1),pickup,3) occurs(object(robot,2),pickup,7) occurs(object(robot,2),putdown,16) occurs(object(robot,2),deliver(1,1,1),15) occurs(object(robot,1),deliver(3,2,2),47) occurs(object(robot,1),deliver(2,2,1),48) timeTaken(9) numActions(13)
Optimization: 151
Answer: 10
occurs(object(robot,1),move(0,-1),0) occurs(object(robot,1),move(-1,0),1) occurs(object(robot,2),move(0,1),1) occurs(object(robot,1),move(-1,0),2) occurs(object(robot,1),move(1,0),6) occurs(object(robot,1),move(0,-1),12) occurs(object(robot,2),move(-1,0),12) occurs(object(robot,1),pickup,3) occurs(object(robot,2),pickup,6) occurs(object(robot,2),putdown,16) occurs(object(robot,2),deliver(1,1,1),15) occurs(object(robot,1),deliver(3,2,2),47) occurs(object(robot,1),deliver(2,2,1),48) timeTaken(9) numActions(13)
Optimization: 150
Answer: 11
occurs(object(robot,1),move(0,-1),0) occurs(object(robot,1),move(-1,0),1) occurs(object(robot,2),move(0,1),1) occurs(object(robot,1),move(-1,0),2) occurs(object(robot,1),move(1,0),5) occurs(object(robot,1),move(0,-1),12) occurs(object(robot,2),move(-1,0),12) occurs(object(robot,1),pickup,3) occurs(object(robot,2),pickup,5) occurs(object(robot,2),putdown,16) occurs(object(robot,2),deliver(1,1,1),15) occurs(object(robot,1),deliver(3,2,2),47) occurs(object(robot,1),deliver(2,2,1),48) timeTaken(9) numActions(13)
Optimization: 149
Answer: 12
occurs(object(robot,1),move(0,-1),0) occurs(object(robot,1),move(-1,0),1) occurs(object(robot,2),move(0,1),1) occurs(object(robot,1),move(-1,0),2) occurs(object(robot,1),move(1,0),4) occurs(object(robot,1),move(0,-1),12) occurs(object(robot,2),move(-1,0),12) occurs(object(robot,1),pickup,3) occurs(object(robot,2),pickup,4) occurs(object(robot,2),putdown,16) occurs(object(robot,2),deliver(1,1,1),15) occurs(object(robot,1),deliver(3,2,2),47) occurs(object(robot,1),deliver(2,2,1),48) timeTaken(9) numActions(13)
Optimization: 148
Answer: 13
occurs(object(robot,1),move(0,-1),0) occurs(object(robot,2),move(0,1),0) occurs(object(robot,1),move(-1,0),1) occurs(object(robot,1),move(-1,0),2) occurs(object(robot,2),move(-1,0),2) occurs(object(robot,1),move(0,-1),12) occurs(object(robot,1),move(1,0),15) occurs(object(robot,2),pickup,1) occurs(object(robot,1),pickup,3) occurs(object(robot,2),putdown,16) occurs(object(robot,2),deliver(1,1,1),15) occurs(object(robot,1),deliver(3,2,2),47) occurs(object(robot,1),deliver(2,2,1),48) timeTaken(8) numActions(13)
Optimization: 144
Answer: 14
occurs(object(robot,1),move(-1,0),0) occurs(object(robot,1),move(-1,0),1) occurs(object(robot,1),move(0,1),11) occurs(object(robot,2),move(1,0),11) occurs(object(robot,1),move(0,-1),12) occurs(object(robot,2),move(0,-1),12) occurs(object(robot,1),move(-1,0),19) occurs(object(robot,2),move(0,1),45) occurs(object(robot,2),pickup,1) occurs(object(robot,1),pickup,17) occurs(object(robot,2),deliver(2,2,1),18) occurs(object(robot,2),deliver(3,2,1),17) occurs(object(robot,2),deliver(3,2,1),20) occurs(object(robot,1),deliver(1,1,1),45) timeTaken(8) numActions(14)
Optimization: 143
Answer: 15
occurs(object(robot,1),move(-1,0),0) occurs(object(robot,2),move(0,-1),11) occurs(object(robot,1),move(-1,0),12) occurs(object(robot,2),move(1,0),12) occurs(object(robot,1),move(-1,0),19) occurs(object(robot,2),move(0,1),45) occurs(object(robot,2),pickup,0) occurs(object(robot,1),pickup,17) occurs(object(robot,2),deliver(2,2,1),18) occurs(object(robot,2),deliver(3,2,1),17) occurs(object(robot,2),deliver(3,2,1),20) occurs(object(robot,1),deliver(1,1,1),45) timeTaken(7) numActions(12)
Optimization: 142
Answer: 16
occurs(object(robot,1),move(-1,0),0) occurs(object(robot,1),move(-1,0),1) occurs(object(robot,1),move(1,0),4) occurs(object(robot,2),move(1,0),4) occurs(object(robot,1),move(0,1),11) occurs(object(robot,2),move(0,1),11) occurs(object(robot,1),move(0,-1),12) occurs(object(robot,2),move(0,-1),12) occurs(object(robot,1),move(-1,0),13) occurs(object(robot,2),move(0,-1),13) occurs(object(robot,1),move(-1,0),20) occurs(object(robot,2),move(0,1),45) occurs(object(robot,2),pickup,1) occurs(object(robot,1),pickup,17) occurs(object(robot,2),deliver(2,2,1),18) occurs(object(robot,2),deliver(3,2,1),17) occurs(object(robot,2),deliver(3,2,1),20) occurs(object(robot,1),deliver(1,1,1),45) timeTaken(9) numActions(18)
Optimization: 141
Answer: 17
occurs(object(robot,1),move(0,-1),0) occurs(object(robot,1),move(-1,0),1) occurs(object(robot,1),move(0,1),2) occurs(object(robot,2),move(1,0),2) occurs(object(robot,1),move(0,1),11) occurs(object(robot,2),move(0,1),11) occurs(object(robot,1),move(0,-1),12) occurs(object(robot,2),move(0,-1),12) occurs(object(robot,1),move(-1,0),13) occurs(object(robot,2),move(0,-1),13) occurs(object(robot,1),move(-1,0),20) occurs(object(robot,2),move(0,1),45) occurs(object(robot,2),pickup,1) occurs(object(robot,1),pickup,17) occurs(object(robot,2),deliver(2,2,1),18) occurs(object(robot,2),deliver(3,2,1),17) occurs(object(robot,2),deliver(3,2,1),20) occurs(object(robot,1),deliver(1,1,1),45) timeTaken(9) numActions(18)
Optimization: 139
Answer: 18
occurs(object(robot,1),move(-1,0),0) occurs(object(robot,1),move(0,1),1) occurs(object(robot,2),move(0,1),1) occurs(object(robot,1),move(-1,0),2) occurs(object(robot,1),move(1,0),4) occurs(object(robot,1),move(-1,0),5) occurs(object(robot,1),move(0,-1),10) occurs(object(robot,2),move(0,-1),10) occurs(object(robot,1),move(0,1),11) occurs(object(robot,2),move(0,1),11) occurs(object(robot,1),move(0,-1),12) occurs(object(robot,2),move(0,-1),12) occurs(object(robot,2),move(0,-1),15) occurs(object(robot,1),move(-1,0),17) occurs(object(robot,2),move(1,0),17) occurs(object(robot,2),pickup,0) occurs(object(robot,1),pickup,15) occurs(object(robot,1),putdown,20) occurs(object(robot,2),deliver(2,2,1),18) occurs(object(robot,1),deliver(1,1,1),19) occurs(object(robot,2),deliver(3,2,1),19) occurs(object(robot,2),deliver(3,2,1),20) timeTaken(12) numActions(22)
Optimization: 134
Answer: 19
occurs(object(robot,1),move(0,-1),1) occurs(object(robot,2),move(0,1),1) occurs(object(robot,1),move(-1,0),2) occurs(object(robot,1),move(0,1),4) occurs(object(robot,1),move(0,-1),5) occurs(object(robot,2),move(0,-1),10) occurs(object(robot,1),move(0,1),11) occurs(object(robot,1),move(-1,0),12) occurs(object(robot,2),move(0,-1),12) occurs(object(robot,2),move(1,0),17) occurs(object(robot,1),move(-1,0),20) occurs(object(robot,2),pickup,0) occurs(object(robot,1),pickup,17) occurs(object(robot,2),deliver(2,2,1),18) occurs(object(robot,2),deliver(3,2,1),20) occurs(object(robot,1),deliver(1,1,1),21) occurs(object(robot,2),deliver(3,2,1),21) timeTaken(11) numActions(17)
Optimization: 121
Answer: 20
occurs(object(robot,1),move(0,1),1) occurs(object(robot,2),move(0,1),1) occurs(object(robot,1),move(-1,0),2) occurs(object(robot,1),move(0,-1),4) occurs(object(robot,1),move(0,-1),5) occurs(object(robot,1),move(-1,0),11) occurs(object(robot,2),move(1,0),11) occurs(object(robot,1),move(0,1),12) occurs(object(robot,2),move(0,-1),12) occurs(object(robot,2),move(0,-1),13) occurs(object(robot,1),move(-1,0),18) occurs(object(robot,2),pickup,0) occurs(object(robot,1),pickup,17) occurs(object(robot,2),deliver(3,2,1),16) occurs(object(robot,2),deliver(2,2,1),18) occurs(object(robot,1),deliver(1,1,1),20) occurs(object(robot,2),deliver(3,2,1),20) timeTaken(11) numActions(17)
Optimization: 119
Answer: 21
occurs(object(robot,1),move(-1,0),0) occurs(object(robot,1),move(-1,0),1) occurs(object(robot,2),move(-1,0),1) occurs(object(robot,2),move(0,1),2) occurs(object(robot,1),move(1,0),4) occurs(object(robot,2),move(1,0),4) occurs(object(robot,1),move(-1,0),11) occurs(object(robot,2),move(0,-1),11) occurs(object(robot,1),move(-1,0),12) occurs(object(robot,2),move(1,0),12) occurs(object(robot,2),move(0,-1),14) occurs(object(robot,1),move(0,1),18) occurs(object(robot,2),pickup,0) occurs(object(robot,1),pickup,2) occurs(object(robot,1),putdown,17) occurs(object(robot,1),deliver(1,1,1),16) occurs(object(robot,2),deliver(3,2,1),16) occurs(object(robot,2),deliver(2,2,1),18) occurs(object(robot,2),deliver(3,2,1),20) timeTaken(10) numActions(19)
Optimization: 115
Answer: 22
occurs(object(robot,1),move(-1,0),0) occurs(object(robot,1),move(-1,0),1) occurs(object(robot,2),move(-1,0),1) occurs(object(robot,2),move(0,1),2) occurs(object(robot,1),move(1,0),4) occurs(object(robot,2),move(1,0),4) occurs(object(robot,2),move(0,-1),11) occurs(object(robot,1),move(-1,0),12) occurs(object(robot,2),move(1,0),12) occurs(object(robot,1),move(-1,0),13) occurs(object(robot,2),move(0,-1),13) occurs(object(robot,1),move(0,1),18) occurs(object(robot,2),pickup,0) occurs(object(robot,1),pickup,2) occurs(object(robot,1),putdown,17) occurs(object(robot,1),deliver(1,1,1),16) occurs(object(robot,2),deliver(3,2,1),16) occurs(object(robot,2),deliver(2,2,1),18) occurs(object(robot,2),deliver(3,2,1),20) timeTaken(10) numActions(19)
Optimization: 114
Answer: 23
occurs(object(robot,1),move(-1,0),0) occurs(object(robot,1),move(-1,0),2) occurs(object(robot,1),move(1,0),4) occurs(object(robot,2),move(0,1),4) occurs(object(robot,1),move(-1,0),11) occurs(object(robot,2),move(0,-1),11) occurs(object(robot,2),move(1,0),12) occurs(object(robot,1),move(-1,0),13) occurs(object(robot,2),move(0,-1),13) occurs(object(robot,1),move(0,1),18) occurs(object(robot,2),pickup,0) occurs(object(robot,1),pickup,12) occurs(object(robot,1),putdown,17) occurs(object(robot,1),deliver(1,1,1),16) occurs(object(robot,2),deliver(3,2,1),16) occurs(object(robot,2),deliver(2,2,1),18) occurs(object(robot,2),deliver(3,2,1),20) timeTaken(9) numActions(17)
Optimization: 113
Answer: 24
occurs(object(robot,1),move(-1,0),0) occurs(object(robot,1),move(-1,0),1) occurs(object(robot,2),move(0,-1),1) occurs(object(robot,2),move(1,0),2) occurs(object(robot,1),move(-1,0),3) occurs(object(robot,1),move(1,0),5) occurs(object(robot,2),move(0,1),5) occurs(object(robot,1),move(-1,0),9) occurs(object(robot,2),move(-1,0),9) occurs(object(robot,2),move(0,1),10) occurs(object(robot,1),move(0,1),11) occurs(object(robot,2),move(0,-1),12) occurs(object(robot,1),move(1,0),17) occurs(object(robot,2),move(1,0),17) occurs(object(robot,2),move(0,-1),18) occurs(object(robot,1),move(-1,0),20) occurs(object(robot,2),pickup,0) occurs(object(robot,1),pickup,2) occurs(object(robot,1),putdown,10) occurs(object(robot,2),deliver(3,2,1),3) occurs(object(robot,1),deliver(1,1,1),4) occurs(object(robot,2),deliver(2,2,1),4) occurs(object(robot,2),deliver(3,2,1),20) timeTaken(12) numActions(23)
Optimization: 112
Answer: 25
occurs(object(robot,1),move(0,-1),0) occurs(object(robot,1),move(-1,0),1) occurs(object(robot,2),move(0,-1),1) occurs(object(robot,1),move(-1,0),2) occurs(object(robot,2),move(1,0),2) occurs(object(robot,1),move(-1,0),3) occurs(object(robot,1),move(1,0),4) occurs(object(robot,1),move(0,1),5) occurs(object(robot,2),move(0,1),5) occurs(object(robot,2),move(-1,0),9) occurs(object(robot,1),move(-1,0),10) occurs(object(robot,2),move(0,1),10) occurs(object(robot,2),move(0,-1),12) occurs(object(robot,1),move(0,1),14) occurs(object(robot,2),move(0,-1),14) occurs(object(robot,1),move(1,0),17) occurs(object(robot,2),move(1,0),17) occurs(object(robot,2),pickup,0) occurs(object(robot,1),pickup,9) occurs(object(robot,1),putdown,12) occurs(object(robot,2),deliver(3,2,1),3) occurs(object(robot,2),deliver(2,2,1),4) occurs(object(robot,1),deliver(1,1,1),11) occurs(object(robot,2),deliver(3,2,1),18) timeTaken(12) numActions(24)
Optimization: 106
Answer: 26
occurs(object(robot,1),move(0,-1),0) occurs(object(robot,1),move(-1,0),1) occurs(object(robot,2),move(0,-1),1) occurs(object(robot,1),move(-1,0),2) occurs(object(robot,2),move(1,0),2) occurs(object(robot,1),move(-1,0),3) occurs(object(robot,1),move(1,0),4) occurs(object(robot,1),move(0,1),5) occurs(object(robot,2),move(0,1),5) occurs(object(robot,2),move(0,1),6) occurs(object(robot,1),move(-1,0),10) occurs(object(robot,2),move(-1,0),10) occurs(object(robot,2),move(0,-1),12) occurs(object(robot,1),move(0,-1),13) occurs(object(robot,2),move(0,-1),13) occurs(object(robot,2),move(1,0),18) occurs(object(robot,2),pickup,0) occurs(object(robot,1),pickup,6) occurs(object(robot,1),putdown,12) occurs(object(robot,2),deliver(3,2,1),3) occurs(object(robot,2),deliver(2,2,1),4) occurs(object(robot,1),deliver(1,1,1),11) occurs(object(robot,2),deliver(3,2,1),20) timeTaken(12) numActions(23)
Optimization: 105
Answer: 27
occurs(object(robot,1),move(0,-1),0) occurs(object(robot,1),move(-1,0),1) occurs(object(robot,2),move(0,-1),1) occurs(object(robot,1),move(-1,0),2) occurs(object(robot,2),move(1,0),2) occurs(object(robot,1),move(1,0),4) occurs(object(robot,1),move(0,1),5) occurs(object(robot,2),move(-1,0),5) occurs(object(robot,2),move(0,1),7) occurs(object(robot,2),move(0,1),10) occurs(object(robot,1),move(-1,0),11) occurs(object(robot,2),move(0,-1),11) occurs(object(robot,2),move(0,-1),12) occurs(object(robot,1),move(-1,0),18) occurs(object(robot,2),move(1,0),18) occurs(object(robot,2),pickup,0) occurs(object(robot,1),pickup,12) occurs(object(robot,2),deliver(3,2,1),3) occurs(object(robot,2),deliver(2,2,1),4) occurs(object(robot,1),deliver(1,1,1),20) occurs(object(robot,2),deliver(3,2,1),20) timeTaken(11) numActions(21)
Optimization: 93
Answer: 28
occurs(object(robot,1),move(-1,0),1) occurs(object(robot,2),move(0,-1),1) occurs(object(robot,1),move(-1,0),2) occurs(object(robot,2),move(1,0),2) occurs(object(robot,1),move(1,0),4) occurs(object(robot,1),move(1,0),5) occurs(object(robot,2),move(0,1),5) occurs(object(robot,2),move(0,1),6) occurs(object(robot,1),move(-1,0),10) occurs(object(robot,2),move(-1,0),10) occurs(object(robot,1),move(-1,0),11) occurs(object(robot,2),move(0,-1),11) occurs(object(robot,2),move(0,-1),12) occurs(object(robot,1),move(-1,0),18) occurs(object(robot,2),move(1,0),18) occurs(object(robot,2),pickup,0) occurs(object(robot,1),pickup,12) occurs(object(robot,2),deliver(3,2,1),3) occurs(object(robot,2),deliver(2,2,1),4) occurs(object(robot,1),deliver(1,1,1),20) occurs(object(robot,2),deliver(3,2,1),20) timeTaken(11) numActions(21)
Optimization: 92
Answer: 29
occurs(object(robot,1),move(0,-1),0) occurs(object(robot,1),move(-1,0),1) occurs(object(robot,2),move(0,-1),1) occurs(object(robot,1),move(-1,0),2) occurs(object(robot,2),move(1,0),2) occurs(object(robot,1),move(1,0),4) occurs(object(robot,1),move(0,1),5) occurs(object(robot,2),move(-1,0),5) occurs(object(robot,2),move(0,1),7) occurs(object(robot,2),move(0,1),10) occurs(object(robot,1),move(-1,0),11) occurs(object(robot,2),move(0,-1),11) occurs(object(robot,2),move(0,-1),12) occurs(object(robot,1),move(-1,0),17) occurs(object(robot,2),move(1,0),17) occurs(object(robot,2),pickup,0) occurs(object(robot,1),pickup,12) occurs(object(robot,2),deliver(3,2,1),3) occurs(object(robot,2),deliver(2,2,1),4) occurs(object(robot,2),deliver(3,2,1),18) occurs(object(robot,1),deliver(1,1,1),18) timeTaken(11) numActions(21)
Optimization: 90
Answer: 30
occurs(object(robot,1),move(-1,0),1) occurs(object(robot,2),move(0,-1),1) occurs(object(robot,1),move(-1,0),2) occurs(object(robot,2),move(1,0),2) occurs(object(robot,2),move(-1,0),5) occurs(object(robot,2),move(0,1),7) occurs(object(robot,1),move(-1,0),10) occurs(object(robot,2),move(0,1),10) occurs(object(robot,2),move(0,-1),11) occurs(object(robot,1),move(0,-1),12) occurs(object(robot,2),move(0,-1),12) occurs(object(robot,2),move(1,0),16) occurs(object(robot,2),pickup,0) occurs(object(robot,1),pickup,7) occurs(object(robot,2),deliver(3,2,1),3) occurs(object(robot,2),deliver(2,2,1),4) occurs(object(robot,1),deliver(1,1,1),11) occurs(object(robot,2),deliver(3,2,1),18) timeTaken(11) numActions(18)
Optimization: 89
Answer: 31
occurs(object(robot,1),move(-1,0),1) occurs(object(robot,2),move(0,-1),1) occurs(object(robot,1),move(-1,0),2) occurs(object(robot,2),move(1,0),2) occurs(object(robot,2),move(-1,0),5) occurs(object(robot,2),move(0,1),7) occurs(object(robot,1),move(-1,0),10) occurs(object(robot,2),move(0,1),10) occurs(object(robot,2),move(0,-1),11) occurs(object(robot,1),move(0,-1),12) occurs(object(robot,2),move(0,-1),12) occurs(object(robot,2),move(1,0),13) occurs(object(robot,2),pickup,0) occurs(object(robot,1),pickup,7) occurs(object(robot,2),deliver(3,2,1),3) occurs(object(robot,2),deliver(2,2,1),4) occurs(object(robot,1),deliver(1,1,1),11) occurs(object(robot,2),deliver(3,2,1),18) timeTaken(11) numActions(18)
Optimization: 86
Answer: 32
occurs(object(robot,1),move(0,-1),0) occurs(object(robot,1),move(-1,0),1) occurs(object(robot,2),move(0,1),1) occurs(object(robot,1),move(-1,0),2) occurs(object(robot,1),move(1,0),4) occurs(object(robot,2),move(-1,0),4) occurs(object(robot,1),move(0,-1),5) occurs(object(robot,2),move(1,0),8) occurs(object(robot,1),move(0,1),10) occurs(object(robot,2),move(0,-1),11) occurs(object(robot,1),move(0,-1),12) occurs(object(robot,2),move(0,-1),12) occurs(object(robot,1),pickup,3) occurs(object(robot,2),pickup,3) occurs(object(robot,1),putdown,9) occurs(object(robot,2),putdown,10) occurs(object(robot,1),deliver(3,2,1),6) occurs(object(robot,1),deliver(2,2,1),7) occurs(object(robot,2),deliver(1,1,1),7) occurs(object(robot,1),deliver(3,2,1),8) timeTaken(12) numActions(20)
Optimization: 78
Answer: 33
occurs(object(robot,1),move(0,-1),0) occurs(object(robot,1),move(-1,0),1) occurs(object(robot,2),move(0,1),1) occurs(object(robot,1),move(-1,0),2) occurs(object(robot,2),move(0,1),2) occurs(object(robot,2),move(0,-1),3) occurs(object(robot,1),move(1,0),4) occurs(object(robot,1),move(0,-1),5) occurs(object(robot,2),move(-1,0),6) occurs(object(robot,2),move(1,0),8) occurs(object(robot,1),move(0,1),11) occurs(object(robot,1),move(0,-1),12) occurs(object(robot,2),move(0,-1),12) occurs(object(robot,1),pickup,3) occurs(object(robot,2),pickup,5) occurs(object(robot,1),putdown,9) occurs(object(robot,2),putdown,11) occurs(object(robot,1),deliver(3,2,1),6) occurs(object(robot,1),deliver(2,2,1),7) occurs(object(robot,2),deliver(1,1,1),7) occurs(object(robot,1),deliver(3,2,1),8) timeTaken(11) numActions(21)
Optimization: 68
Answer: 34
occurs(object(robot,1),move(0,-1),0) occurs(object(robot,1),move(-1,0),1) occurs(object(robot,2),move(0,1),1) occurs(object(robot,1),move(-1,0),2) occurs(object(robot,2),move(0,1),2) occurs(object(robot,2),move(0,-1),3) occurs(object(robot,1),move(1,0),4) occurs(object(robot,1),move(0,-1),5) occurs(object(robot,2),move(-1,0),6) occurs(object(robot,2),move(1,0),8) occurs(object(robot,1),move(0,1),10) occurs(object(robot,1),move(0,-1),12) occurs(object(robot,2),move(0,-1),12) occurs(object(robot,1),pickup,3) occurs(object(robot,2),pickup,5) occurs(object(robot,1),putdown,9) occurs(object(robot,2),putdown,10) occurs(object(robot,1),deliver(3,2,1),6) occurs(object(robot,1),deliver(2,2,1),7) occurs(object(robot,2),deliver(1,1,1),7) occurs(object(robot,1),deliver(3,2,1),8) timeTaken(11) numActions(21)
Optimization: 67
Answer: 35
occurs(object(robot,1),move(0,-1),0) occurs(object(robot,1),move(-1,0),1) occurs(object(robot,2),move(0,1),1) occurs(object(robot,1),move(-1,0),2) occurs(object(robot,2),move(0,1),2) occurs(object(robot,2),move(0,-1),3) occurs(object(robot,1),move(1,0),4) occurs(object(robot,1),move(0,-1),5) occurs(object(robot,2),move(-1,0),6) occurs(object(robot,2),move(1,0),8) occurs(object(robot,2),move(0,1),11) occurs(object(robot,1),pickup,3) occurs(object(robot,2),pickup,5) occurs(object(robot,1),putdown,9) occurs(object(robot,2),putdown,10) occurs(object(robot,1),deliver(3,2,1),6) occurs(object(robot,1),deliver(2,2,1),7) occurs(object(robot,2),deliver(1,1,1),7) occurs(object(robot,1),deliver(3,2,1),8) timeTaken(11) numActions(19)
Optimization: 66
Answer: 36
occurs(object(robot,1),move(0,-1),0) occurs(object(robot,1),move(-1,0),1) occurs(object(robot,2),move(0,1),1) occurs(object(robot,1),move(-1,0),2) occurs(object(robot,2),move(0,1),2) occurs(object(robot,2),move(0,-1),3) occurs(object(robot,1),move(1,0),4) occurs(object(robot,1),move(0,-1),5) occurs(object(robot,2),move(-1,0),6) occurs(object(robot,2),move(1,0),8) occurs(object(robot,1),pickup,3) occurs(object(robot,2),pickup,5) occurs(object(robot,1),putdown,9) occurs(object(robot,2),putdown,11) occurs(object(robot,1),deliver(3,2,1),6) occurs(object(robot,1),deliver(2,2,1),7) occurs(object(robot,2),deliver(1,1,1),7) occurs(object(robot,1),deliver(3,2,1),8) timeTaken(10) numActions(18)
Optimization: 56
Answer: 37
occurs(object(robot,1),move(0,-1),0) occurs(object(robot,1),move(-1,0),1) occurs(object(robot,2),move(0,1),1) occurs(object(robot,1),move(-1,0),2) occurs(object(robot,1),move(1,0),4) occurs(object(robot,1),move(0,-1),5) occurs(object(robot,2),move(-1,0),9) occurs(object(robot,1),pickup,3) occurs(object(robot,2),pickup,8) occurs(object(robot,1),putdown,9) occurs(object(robot,1),deliver(2,2,1),7) occurs(object(robot,1),deliver(3,2,2),8) occurs(object(robot,2),deliver(1,1,1),11) timeTaken(9) numActions(13)
Optimization: 50
Answer: 38
occurs(object(robot,1),move(-1,0),1) occurs(object(robot,1),move(-1,0),2) occurs(object(robot,2),move(1,0),2) occurs(object(robot,2),move(0,-1),4) occurs(object(robot,1),move(-1,0),5) occurs(object(robot,1),move(1,0),7) occurs(object(robot,2),move(0,1),7) occurs(object(robot,2),move(0,1),8) occurs(object(robot,1),move(0,1),9) occurs(object(robot,2),move(-1,0),9) occurs(object(robot,2),pickup,0) occurs(object(robot,1),pickup,4) occurs(object(robot,2),deliver(3,2,2),6) occurs(object(robot,1),deliver(1,1,1),6) occurs(object(robot,2),deliver(2,2,1),5) timeTaken(8) numActions(15)
Optimization: 42
Answer: 39
occurs(object(robot,1),move(-1,0),0) occurs(object(robot,1),move(-1,0),1) occurs(object(robot,2),move(0,-1),1) occurs(object(robot,2),move(1,0),2) occurs(object(robot,1),move(-1,0),12) occurs(object(robot,2),pickup,0) occurs(object(robot,1),pickup,2) occurs(object(robot,2),deliver(2,2,1),3) occurs(object(robot,2),deliver(3,2,1),12) occurs(object(robot,1),deliver(1,1,1),20) occurs(object(robot,2),deliver(3,2,1),20) timeTaken(5) numActions(11)
Optimization: 38
Answer: 40
occurs(object(robot,1),move(-1,0),0) occurs(object(robot,1),move(-1,0),1) occurs(object(robot,2),move(0,-1),1) occurs(object(robot,2),move(1,0),2) occurs(object(robot,1),move(-1,0),5) occurs(object(robot,2),pickup,0) occurs(object(robot,1),pickup,2) occurs(object(robot,2),deliver(2,2,1),5) occurs(object(robot,2),deliver(3,2,1),12) occurs(object(robot,1),deliver(1,1,1),17) occurs(object(robot,2),deliver(3,2,1),17) timeTaken(5) numActions(11)
Optimization: 37
Answer: 41
occurs(object(robot,1),move(-1,0),0) occurs(object(robot,1),move(-1,0),2) occurs(object(robot,2),move(1,0),2) occurs(object(robot,2),move(0,-1),5) occurs(object(robot,1),move(-1,0),12) occurs(object(robot,2),pickup,0) occurs(object(robot,1),pickup,5) occurs(object(robot,2),deliver(2,2,1),12) occurs(object(robot,1),deliver(1,1,1),17) occurs(object(robot,2),deliver(3,2,2),17) timeTaken(4) numActions(10)
Optimization: 36
Answer: 42
occurs(object(robot,1),move(-1,0),0) occurs(object(robot,1),move(-1,0),1) occurs(object(robot,2),move(1,0),1) occurs(object(robot,1),move(-1,0),4) occurs(object(robot,2),move(0,-1),5) occurs(object(robot,1),move(0,1),8) occurs(object(robot,2),pickup,0) occurs(object(robot,1),pickup,2) occurs(object(robot,1),deliver(1,1,1),5) occurs(object(robot,2),deliver(2,2,1),8) occurs(object(robot,2),deliver(3,2,2),12) timeTaken(6) numActions(11)
Optimization: 32
Answer: 43
occurs(object(robot,1),move(-1,0),0) occurs(object(robot,1),move(-1,0),1) occurs(object(robot,2),move(1,0),1) occurs(object(robot,2),move(0,-1),2) occurs(object(robot,1),move(-1,0),3) occurs(object(robot,1),move(0,1),8) occurs(object(robot,2),pickup,0) occurs(object(robot,1),pickup,2) occurs(object(robot,2),deliver(3,2,1),3) occurs(object(robot,1),deliver(1,1,1),5) occurs(object(robot,2),deliver(2,2,1),8) occurs(object(robot,2),deliver(3,2,1),12) timeTaken(6) numActions(12)
Optimization: 31
Answer: 44
occurs(object(robot,1),move(-1,0),0) occurs(object(robot,1),move(-1,0),2) occurs(object(robot,2),move(1,0),2) occurs(object(robot,2),move(0,-1),5) occurs(object(robot,1),move(-1,0),8) occurs(object(robot,2),pickup,0) occurs(object(robot,1),pickup,5) occurs(object(robot,2),deliver(2,2,1),8) occurs(object(robot,1),deliver(1,1,1),15) occurs(object(robot,2),deliver(3,2,2),15) timeTaken(4) numActions(10)
Optimization: 30
Answer: 45
occurs(object(robot,1),move(-1,0),0) occurs(object(robot,1),move(-1,0),1) occurs(object(robot,2),move(0,-1),1) occurs(object(robot,2),move(1,0),5) occurs(object(robot,1),move(-1,0),8) occurs(object(robot,2),pickup,0) occurs(object(robot,1),pickup,5) occurs(object(robot,2),deliver(2,2,1),8) occurs(object(robot,1),deliver(1,1,1),15) occurs(object(robot,2),deliver(3,2,2),15) timeTaken(4) numActions(10)
Optimization: 29
Answer: 46
occurs(object(robot,1),move(-1,0),0) occurs(object(robot,1),move(-1,0),1) occurs(object(robot,2),move(1,0),1) occurs(object(robot,2),move(0,-1),2) occurs(object(robot,1),move(-1,0),8) occurs(object(robot,2),pickup,0) occurs(object(robot,1),pickup,2) occurs(object(robot,2),deliver(2,2,1),8) occurs(object(robot,1),deliver(1,1,1),15) occurs(object(robot,2),deliver(3,2,2),15) timeTaken(4) numActions(10)
Optimization: 26
Answer: 47
occurs(object(robot,1),move(-1,0),0) occurs(object(robot,1),move(-1,0),1) occurs(object(robot,2),move(1,0),1) occurs(object(robot,2),move(0,-1),2) occurs(object(robot,1),move(-1,0),9) occurs(object(robot,2),pickup,0) occurs(object(robot,1),pickup,2) occurs(object(robot,2),deliver(3,2,2),9) occurs(object(robot,1),deliver(1,1,1),12) occurs(object(robot,2),deliver(2,2,1),12) timeTaken(4) numActions(10)
Optimization: 24
Answer: 48
occurs(object(robot,1),move(-1,0),0) occurs(object(robot,1),move(-1,0),1) occurs(object(robot,2),move(0,-1),1) occurs(object(robot,2),move(1,0),4) occurs(object(robot,1),move(-1,0),6) occurs(object(robot,2),pickup,0) occurs(object(robot,1),pickup,4) occurs(object(robot,2),deliver(2,2,1),6) occurs(object(robot,1),deliver(1,1,1),12) occurs(object(robot,2),deliver(3,2,2),12) timeTaken(4) numActions(10)
Optimization: 23
Answer: 49
occurs(object(robot,1),move(-1,0),0) occurs(object(robot,2),move(1,0),1) occurs(object(robot,1),move(-1,0),2) occurs(object(robot,2),move(0,-1),2) occurs(object(robot,1),move(-1,0),5) occurs(object(robot,2),pickup,0) occurs(object(robot,1),pickup,3) occurs(object(robot,2),deliver(3,2,1),3) occurs(object(robot,2),deliver(2,2,1),5) occurs(object(robot,1),deliver(1,1,1),9) occurs(object(robot,2),deliver(3,2,1),9) timeTaken(5) numActions(11)
Optimization: 20
Answer: 50
occurs(object(robot,1),move(-1,0),0) occurs(object(robot,2),move(1,0),1) occurs(object(robot,1),move(-1,0),2) occurs(object(robot,2),move(0,-1),2) occurs(object(robot,1),move(-1,0),4) occurs(object(robot,2),move(1,0),5) occurs(object(robot,2),pickup,0) occurs(object(robot,1),pickup,3) occurs(object(robot,2),deliver(2,2,1),3) occurs(object(robot,2),deliver(3,2,2),4) occurs(object(robot,1),deliver(1,1,1),5) timeTaken(5) numActions(11)
Optimization: 15
Answer: 51
occurs(object(robot,1),move(-1,0),0) occurs(object(robot,1),move(-1,0),1) occurs(object(robot,2),move(1,0),1) occurs(object(robot,2),move(0,-1),2) occurs(object(robot,1),move(-1,0),4) occurs(object(robot,2),pickup,0) occurs(object(robot,1),pickup,2) occurs(object(robot,2),deliver(3,2,2),4) occurs(object(robot,1),deliver(1,1,1),5) occurs(object(robot,2),deliver(2,2,1),5) timeTaken(4) numActions(10)
Optimization: 12
Answer: 52
occurs(object(robot,1),move(-1,0),0) occurs(object(robot,1),move(-1,0),1) occurs(object(robot,2),move(1,0),1) occurs(object(robot,2),move(0,-1),2) occurs(object(robot,1),move(-1,0),3) occurs(object(robot,2),pickup,0) occurs(object(robot,1),pickup,2) occurs(object(robot,2),deliver(3,2,2),3) occurs(object(robot,1),deliver(1,1,1),5) occurs(object(robot,2),deliver(2,2,1),5) timeTaken(4) numActions(10)
Optimization: 11
Answer: 53
occurs(object(robot,1),move(-1,0),0) occurs(object(robot,1),move(-1,0),1) occurs(object(robot,2),move(0,-1),1) occurs(object(robot,2),move(1,0),2) occurs(object(robot,1),move(-1,0),3) occurs(object(robot,2),pickup,0) occurs(object(robot,1),pickup,2) occurs(object(robot,2),deliver(2,2,1),3) occurs(object(robot,1),deliver(1,1,1),4) occurs(object(robot,2),deliver(3,2,2),4) timeTaken(4) numActions(10)
Optimization: 10
OPTIMUM FOUND

Models       : 53
  Optimum    : yes
Optimization : 10
Calls        : 1
Time         : 7.861s (Solving: 4.10s 1st Model: 0.25s Unsat: 0.01s)
CPU Time     : 7.730s
